(set-info :source |printed by MathSAT|)
(declare-fun call_moesi.ite29 () Int)
(declare-fun call_moesi.ite32 () Int)
(declare-fun call_moesi.ite23 () Int)
(declare-fun call_moesi.ite25 () Int)
(declare-fun call_moesi.ite14 () Int)
(declare-fun invalid_mo () Int)
(declare-fun call_moesi.ite12 () Int)
(declare-fun param_etat_mo2 () Bool)
(declare-fun call_moesi.flby4 () Int)
(declare-fun call_moesi.ite8 () Int)
(declare-fun param_etat_mo3 () Bool)
(declare-fun env () Bool)
(declare-fun call_moesi.flby2 () Int)
(declare-fun call_moesi.ite17 () Int)
(declare-fun call_moesi.invalid_mo () Int)
(declare-fun erreur_mo () Bool)
(declare-fun call_moesi.ite18 () Int)
(declare-fun call_moesi.erreur_mo () Bool)
(declare-fun call_moesi.exclusive_mo () Int)
(declare-fun call_Sofar.Sofar () Bool)
(declare-fun param_init_invalid_mo () Int)
(declare-fun call_moesi.ite16 () Int)
(declare-fun call_moesi.ite7 () Int)
(declare-fun call_moesi.garde_mo4 () Bool)
(declare-fun call_moesi.ite24 () Int)
(declare-fun flby () Bool)
(declare-fun call_moesi.flby () Bool)
(declare-fun call_moesi.ite30 () Int)
(declare-fun call_moesi.ite20 () Int)
(declare-fun call_moesi.ite34 () Int)
(declare-fun call_moesi.garde_mo3 () Bool)
(declare-fun call_Sofar.flby () Bool)
(declare-fun call_moesi.ite () Int)
(declare-fun call_moesi.ite3 () Int)
(declare-fun owned_mo () Int)
(declare-fun call_moesi.ite33 () Int)
(declare-fun call_moesi.flby6 () Int)
(declare-fun param_etat_mo4 () Bool)
(declare-fun call_moesi.ite28 () Int)
(declare-fun shared_mo () Int)
(declare-fun call_moesi.ite26 () Int)
(declare-fun call_moesi.ite19 () Int)
(declare-fun call_moesi.ite9 () Int)
(declare-fun call_moesi.ite10 () Int)
(declare-fun call_moesi.ite13 () Int)
(declare-fun modified_mo () Int)
(declare-fun call_moesi.ite5 () Int)
(declare-fun _OK_ () Bool)
(declare-fun call_moesi.modified_mo () Int)
(declare-fun call_moesi.shared_mo () Int)
(declare-fun call_moesi.ite6 () Int)
(declare-fun call_moesi.ite22 () Int)
(declare-fun call_moesi.ite27 () Int)
(declare-fun call_moesi.flby3 () Int)
(declare-fun call_moesi.ite2 () Int)
(declare-fun call_moesi.ite15 () Int)
(declare-fun call_moesi.owned_mo () Int)
(declare-fun call_moesi.flby5 () Int)
(declare-fun exclusive_mo () Int)
(declare-fun call_excludes4.excludes () Bool)
(declare-fun param_etat_mo1 () Bool)
(declare-fun call_moesi.ite31 () Int)
(declare-fun call_moesi.ite21 () Int)
(declare-fun call_moesi.ite11 () Int)
(declare-fun call_moesi.ite4 () Int)
(declare-fun call_moesi.garde_mo1 () Bool)
(define-fun .def_925 () Bool (= call_Sofar.flby call_Sofar.Sofar))
(define-fun .def_920 () Bool (and param_etat_mo4 param_etat_mo3))
(define-fun .def_918 () Bool (and param_etat_mo4 param_etat_mo2))
(define-fun .def_916 () Bool (and param_etat_mo2 param_etat_mo3))
(define-fun .def_914 () Bool (and param_etat_mo4 param_etat_mo1))
(define-fun .def_912 () Bool (and param_etat_mo1 param_etat_mo3))
(define-fun .def_911 () Bool (and param_etat_mo2 param_etat_mo1))
(define-fun .def_913 () Bool (or .def_911 .def_912))
(define-fun .def_915 () Bool (or .def_913 .def_914))
(define-fun .def_917 () Bool (or .def_915 .def_916))
(define-fun .def_919 () Bool (or .def_917 .def_918))
(define-fun .def_921 () Bool (or .def_919 .def_920))
(define-fun .def_922 () Bool (not .def_921))
(define-fun .def_923 () Bool (= call_excludes4.excludes .def_922))
(define-fun .def_909 () Bool (= call_moesi.flby call_moesi.erreur_mo))
(define-fun .def_907 () Bool (= call_moesi.flby6 call_moesi.owned_mo))
(define-fun .def_905 () Bool (= call_moesi.flby5 call_moesi.invalid_mo))
(define-fun .def_903 () Bool (= call_moesi.flby4 call_moesi.shared_mo))
(define-fun .def_901 () Bool (= call_moesi.flby3 call_moesi.exclusive_mo))
(define-fun .def_899 () Bool (= call_moesi.flby2 call_moesi.modified_mo))
(define-fun .def_897 () Bool (= env call_Sofar.Sofar))
(define-fun .def_894 () Bool (= erreur_mo call_moesi.erreur_mo))
(define-fun .def_890 () Bool (= owned_mo call_moesi.owned_mo))
(define-fun .def_886 () Bool (= invalid_mo call_moesi.invalid_mo))
(define-fun .def_882 () Bool (= shared_mo call_moesi.shared_mo))
(define-fun .def_878 () Bool (= exclusive_mo call_moesi.exclusive_mo))
(define-fun .def_874 () Bool (= modified_mo call_moesi.modified_mo))
(define-fun .def_868 () Bool (not env))
(define-fun .def_869 () Bool (or flby .def_868))
(define-fun .def_870 () Bool (= _OK_ .def_869))
(define-fun .def_862 () Bool (= call_moesi.ite32 call_moesi.ite33))
(define-fun .def_863 () Bool (or param_etat_mo3 .def_862))
(define-fun .def_859 () Bool (= call_moesi.ite30 call_moesi.ite33))
(define-fun .def_837 () Bool (not param_etat_mo3))
(define-fun .def_860 () Bool (or .def_837 .def_859))
(define-fun .def_856 () Bool (= call_moesi.ite26 call_moesi.ite27))
(define-fun .def_857 () Bool (or param_etat_mo3 .def_856))
(define-fun .def_853 () Bool (= call_moesi.ite27 call_moesi.ite24))
(define-fun .def_854 () Bool (or .def_837 .def_853))
(define-fun .def_849 () Bool (= call_moesi.ite20 call_moesi.ite21))
(define-fun .def_850 () Bool (or param_etat_mo3 .def_849))
(define-fun .def_846 () Bool (= call_moesi.ite18 call_moesi.ite21))
(define-fun .def_847 () Bool (or .def_837 .def_846))
(define-fun .def_843 () Bool (= call_moesi.ite13 call_moesi.ite14))
(define-fun .def_844 () Bool (or param_etat_mo3 .def_843))
(define-fun .def_840 () Bool (= call_moesi.ite11 call_moesi.ite14))
(define-fun .def_841 () Bool (or .def_837 .def_840))
(define-fun .def_836 () Bool (= call_moesi.ite3 call_moesi.ite6))
(define-fun .def_838 () Bool (or .def_836 .def_837))
(define-fun .def_833 () Bool (= call_moesi.ite5 call_moesi.ite6))
(define-fun .def_835 () Bool (or .def_833 param_etat_mo3))
(define-fun .def_839 () Bool (and .def_835 .def_838))
(define-fun .def_842 () Bool (and .def_839 .def_841))
(define-fun .def_845 () Bool (and .def_842 .def_844))
(define-fun .def_848 () Bool (and .def_845 .def_847))
(define-fun .def_851 () Bool (and .def_848 .def_850))
(define-fun .def_855 () Bool (and .def_851 .def_854))
(define-fun .def_858 () Bool (and .def_855 .def_857))
(define-fun .def_861 () Bool (and .def_858 .def_860))
(define-fun .def_864 () Bool (and .def_861 .def_863))
(define-fun .def_829 () Bool (= call_moesi.ite34 call_moesi.ite33))
(define-fun .def_830 () Bool (or param_etat_mo1 .def_829))
(define-fun .def_825 () Bool (= call_moesi.ite29 call_moesi.ite34))
(define-fun .def_795 () Bool (not param_etat_mo1))
(define-fun .def_826 () Bool (or .def_795 .def_825))
(define-fun .def_820 () Bool (= call_moesi.ite28 call_moesi.ite27))
(define-fun .def_821 () Bool (or param_etat_mo1 .def_820))
(define-fun .def_816 () Bool (= call_moesi.ite23 call_moesi.ite28))
(define-fun .def_817 () Bool (or .def_795 .def_816))
(define-fun .def_811 () Bool (= call_moesi.ite22 call_moesi.ite21))
(define-fun .def_812 () Bool (or param_etat_mo1 .def_811))
(define-fun .def_807 () Bool (= call_moesi.ite17 call_moesi.ite22))
(define-fun .def_808 () Bool (or .def_795 .def_807))
(define-fun .def_802 () Bool (= call_moesi.ite15 call_moesi.ite16))
(define-fun .def_803 () Bool (or param_etat_mo1 .def_802))
(define-fun .def_799 () Bool (= call_moesi.ite9 call_moesi.ite16))
(define-fun .def_800 () Bool (or .def_795 .def_799))
(define-fun .def_794 () Bool (= call_moesi.ite call_moesi.ite8))
(define-fun .def_796 () Bool (or .def_794 .def_795))
(define-fun .def_791 () Bool (= call_moesi.ite7 call_moesi.ite8))
(define-fun .def_793 () Bool (or .def_791 param_etat_mo1))
(define-fun .def_797 () Bool (and .def_793 .def_796))
(define-fun .def_801 () Bool (and .def_797 .def_800))
(define-fun .def_804 () Bool (and .def_801 .def_803))
(define-fun .def_809 () Bool (and .def_804 .def_808))
(define-fun .def_813 () Bool (and .def_809 .def_812))
(define-fun .def_818 () Bool (and .def_813 .def_817))
(define-fun .def_822 () Bool (and .def_818 .def_821))
(define-fun .def_827 () Bool (and .def_822 .def_826))
(define-fun .def_831 () Bool (and .def_827 .def_830))
(define-fun .def_787 () Bool (= call_moesi.ite15 call_moesi.ite14))
(define-fun .def_788 () Bool (or param_etat_mo2 .def_787))
(define-fun .def_783 () Bool (= call_moesi.ite10 call_moesi.ite15))
(define-fun .def_778 () Bool (not param_etat_mo2))
(define-fun .def_784 () Bool (or .def_778 .def_783))
(define-fun .def_777 () Bool (= call_moesi.ite7 call_moesi.ite2))
(define-fun .def_779 () Bool (or .def_777 .def_778))
(define-fun .def_773 () Bool (= call_moesi.ite7 call_moesi.ite6))
(define-fun .def_775 () Bool (or .def_773 param_etat_mo2))
(define-fun .def_780 () Bool (and .def_775 .def_779))
(define-fun .def_785 () Bool (and .def_780 .def_784))
(define-fun .def_789 () Bool (and .def_785 .def_788))
(define-fun .def_832 () Bool (and .def_789 .def_831))
(define-fun .def_865 () Bool (and .def_832 .def_864))
(define-fun .def_871 () Bool (and .def_865 .def_870))
(define-fun .def_875 () Bool (and .def_871 .def_874))
(define-fun .def_879 () Bool (and .def_875 .def_878))
(define-fun .def_883 () Bool (and .def_879 .def_882))
(define-fun .def_887 () Bool (and .def_883 .def_886))
(define-fun .def_891 () Bool (and .def_887 .def_890))
(define-fun .def_895 () Bool (and .def_891 .def_894))
(define-fun .def_898 () Bool (and .def_895 .def_897))
(define-fun .def_900 () Bool (and .def_898 .def_899))
(define-fun .def_902 () Bool (and .def_900 .def_901))
(define-fun .def_904 () Bool (and .def_902 .def_903))
(define-fun .def_906 () Bool (and .def_904 .def_905))
(define-fun .def_908 () Bool (and .def_906 .def_907))
(define-fun .def_910 () Bool (and .def_908 .def_909))
(define-fun .def_924 () Bool (and .def_910 .def_923))
(define-fun .def_926 () Bool (and .def_924 .def_925))
(define-fun .def_769 () Bool (= call_excludes4.excludes call_Sofar.flby))
(define-fun .def_765 () Bool (= call_moesi.flby6 0))
(define-fun .def_762 () Bool (= param_init_invalid_mo call_moesi.flby5))
(define-fun .def_758 () Bool (= call_moesi.flby4 0))
(define-fun .def_755 () Bool (= call_moesi.flby3 0))
(define-fun .def_752 () Bool (= call_moesi.flby2 0))
(define-fun .def_749 () Bool (not call_moesi.flby))
(define-fun .def_744 () Bool (= call_moesi.ite31 0))
(define-fun .def_736 () Bool (not call_moesi.garde_mo4))
(define-fun .def_745 () Bool (or .def_736 .def_744))
(define-fun .def_741 () Bool (= call_moesi.ite19 0))
(define-fun .def_742 () Bool (or .def_736 .def_741))
(define-fun .def_738 () Bool (= call_moesi.ite4 0))
(define-fun .def_739 () Bool (or .def_736 .def_738))
(define-fun .def_734 () Bool (= call_moesi.ite12 1))
(define-fun .def_737 () Bool (or .def_734 .def_736))
(define-fun .def_740 () Bool (and .def_737 .def_739))
(define-fun .def_743 () Bool (and .def_740 .def_742))
(define-fun .def_746 () Bool (and .def_743 .def_745))
(define-fun .def_730 () Bool (= call_moesi.ite30 0))
(define-fun .def_719 () Bool (not call_moesi.garde_mo3))
(define-fun .def_731 () Bool (or .def_719 .def_730))
(define-fun .def_726 () Bool (= call_moesi.ite18 0))
(define-fun .def_727 () Bool (or .def_719 .def_726))
(define-fun .def_722 () Bool (= call_moesi.ite3 0))
(define-fun .def_723 () Bool (or .def_719 .def_722))
(define-fun .def_717 () Bool (= call_moesi.ite11 1))
(define-fun .def_720 () Bool (or .def_717 .def_719))
(define-fun .def_724 () Bool (and .def_720 .def_723))
(define-fun .def_728 () Bool (and .def_724 .def_727))
(define-fun .def_732 () Bool (and .def_728 .def_731))
(define-fun .def_712 () Bool (= call_moesi.ite 0))
(define-fun .def_709 () Bool (not call_moesi.garde_mo1))
(define-fun .def_713 () Bool (or .def_709 .def_712))
(define-fun .def_707 () Bool (= call_moesi.ite9 0))
(define-fun .def_710 () Bool (or .def_707 .def_709))
(define-fun .def_714 () Bool (and .def_710 .def_713))
(define-fun .def_701 () Bool (= call_moesi.ite31 call_moesi.ite32))
(define-fun .def_682 () Bool (not param_etat_mo4))
(define-fun .def_702 () Bool (or .def_682 .def_701))
(define-fun .def_696 () Bool (= call_moesi.ite25 call_moesi.ite26))
(define-fun .def_697 () Bool (or .def_682 .def_696))
(define-fun .def_691 () Bool (= call_moesi.ite19 call_moesi.ite20))
(define-fun .def_692 () Bool (or .def_682 .def_691))
(define-fun .def_686 () Bool (= call_moesi.ite4 call_moesi.ite5))
(define-fun .def_687 () Bool (or .def_682 .def_686))
(define-fun .def_680 () Bool (= call_moesi.ite12 call_moesi.ite13))
(define-fun .def_683 () Bool (or .def_680 .def_682))
(define-fun .def_688 () Bool (and .def_683 .def_687))
(define-fun .def_693 () Bool (and .def_688 .def_692))
(define-fun .def_698 () Bool (and .def_693 .def_697))
(define-fun .def_703 () Bool (and .def_698 .def_702))
(define-fun .def_705 () Bool (and .def_703 flby))
(define-fun .def_715 () Bool (and .def_705 .def_714))
(define-fun .def_733 () Bool (and .def_715 .def_732))
(define-fun .def_747 () Bool (and .def_733 .def_746))
(define-fun .def_750 () Bool (and .def_747 .def_749))
(define-fun .def_753 () Bool (and .def_750 .def_752))
(define-fun .def_756 () Bool (and .def_753 .def_755))
(define-fun .def_759 () Bool (and .def_756 .def_758))
(define-fun .def_763 () Bool (and .def_759 .def_762))
(define-fun .def_766 () Bool (and .def_763 .def_765))
(define-fun .def_770 () Bool (and .def_766 .def_769))
(define-fun .def_927 () Bool (and .def_770 .def_926))
(assert .def_927)
